13 200
0 0 70 70 0 0 1351 0 0 0
1 101 35 76 10 35 437 90 0 99
2 58 21 115 10 75 607 90 0 8
3 177 16 138 10 86 514 90 0 88
4 3 10 137 30 89 743 90 0 137
5 186 3 135 20 209 715 90 0 127
6 98 10 134 10 432 874 90 0 157
7 99 34 79 -10 542 1201 90 101 0
8 8 6 135 -10 119 618 90 58 0
9 88 8 138 -10 92 600 90 177 0
10 137 35 102 -30 706 1109 90 3 0
11 127 2 132 -20 320 789 90 186 0
12 157 14 131 -10 499 998 90 98 0

